     Program PWSCF v.7.1 starts on  6Oct2023 at  7:37:41

     Reading input from TiS.scf.in

     Current dimensions of program PWSCF are:
     Max number of different atomic species (ntypx) = 10
     Max number of k-points (npk) =  40000
     Max angular momentum in pseudopotentials (lmaxx) =  4
     Message from routine set_cutoff:
     ecutrho < 4*ecutwfc, are you sure?

     K-points division:     npool     =       5
     R & G space division:  proc/nbgrp/npool/nimage =       6
     Subspace diagonalization in iterative solution of the eigenvalue problem:
     a serial algorithm will be used

     Using Slab Decomposition

     bravais-lattice index     =            0
     lattice parameter (alat)  =       6.2293  a.u.
     unit-cell volume          =     417.9542 (a.u.)^3
     number of atoms/cell      =            4
     number of atomic types    =            2
     number of electrons       =        36.00
     number of Kohn-Sham states=           22
     kinetic-energy cutoff     =     150.0000  Ry
     charge density cutoff     =     280.0000  Ry
     scf convergence threshold =      8.0E-10
     mixing beta               =       0.4000
     number of iterations used =            8  plain     mixing
     Exchange-correlation=  SLA  PW   PBX  PBC
                           (   1   4   3   4   0   0   0)

     celldm(1)=   6.229263  celldm(2)=   0.000000  celldm(3)=   0.000000
     celldm(4)=   0.000000  celldm(5)=   0.000000  celldm(6)=   0.000000

     crystal axes: (cart. coord. in units of alat)
               a(1) = (   1.000000   0.000000   0.000000 )
               a(2) = (  -0.500000   0.866025   0.000000 )
               a(3) = (   0.000000   0.000000   1.996586 )

     reciprocal axes: (cart. coord. in units 2 pi/alat)
               b(1) = (  1.000000  0.577350 -0.000000 )
               b(2) = (  0.000000  1.154701  0.000000 )
               b(3) = (  0.000000 -0.000000  0.500855 )

     PseudoPot. # 1 for S  read from file:
     /home/tcmp/apps/pseudopotential/s_pbe_v1.4.uspp.F.UPF
     MD5 check sum: 88d86576ff6df21479756cfb9bdac1df
     Pseudo is Ultrasoft + core correction, Zval =  6.0
     Generated by new atomic code, or converted to UPF format
     Using radial grid of  907 points,  6 beta functions with:
                l(1) =   0
                l(2) =   0
                l(3) =   1
                l(4) =   1
                l(5) =   2
                l(6) =   2
     Q(r) pseudized with  8 coefficients,  rinner =    1.300   1.300   1.300
                                                       1.300   1.300

     PseudoPot. # 2 for Ti read from file:
     /home/tcmp/apps/pseudopotential/ti_pbe_v1.4.uspp.F.UPF
     MD5 check sum: 88a00a6731bd790ddea75d31a80cb452
     Pseudo is Ultrasoft + core correction, Zval = 12.0
     Generated by new atomic code, or converted to UPF format
     Using radial grid of  851 points,  6 beta functions with:
                l(1) =   0
                l(2) =   0
                l(3) =   1
                l(4) =   1
                l(5) =   2
                l(6) =   2
     Q(r) pseudized with  6 coefficients,  rinner =    1.000   1.000   1.000
                                                       1.000   1.000

     atomic species   valence    mass     pseudopotential
        S              6.00    32.06500     S ( 1.00)
        Ti            12.00    47.86700     Ti( 1.00)

     Starting magnetic structure
     atomic species   magnetization
        S            0.100
        Ti           0.417

     No symmetry found

                                    s                        frac. trans.

      isym =  1     identity

 cryst.   s( 1) = (     1          0          0      )
                  (     0          1          0      )
                  (     0          0          1      )

 cart.    s( 1) = (  1.0000000 -0.0000000  0.0000000 )
                  (  0.0000000  1.0000000  0.0000000 )
                  (  0.0000000  0.0000000  1.0000000 )

   Cartesian axes

     site n.     atom                  positions (alat units)
         1           S   tau(   1) = (   0.5000000   0.2887168   0.4991465  )
         2           S   tau(   2) = (  -0.0000000   0.5773086   1.4974395  )
         3           Ti  tau(   3) = (   0.0000000   0.0000000   0.0000000  )
         4           Ti  tau(   4) = (   0.0000000   0.0000000   0.9982930  )

   Crystallographic axes

     site n.     atom                  positions (cryst. coord.)
         1           S   tau(   1) = (  0.6666907  0.3333814  0.2500000  )
         2           S   tau(   2) = (  0.3333093  0.6666186  0.7500000  )
         3           Ti  tau(   3) = (  0.0000000  0.0000000  0.0000000  )
         4           Ti  tau(   4) = (  0.0000000  0.0000000  0.5000000  )

     number of k points=   362  Marzari-Vanderbilt smearing, width (Ry)=  0.0147
                       cart. coord. in units 2pi/alat
        k(    1) = (   0.0000000   0.0000000   0.0000000), wk =   0.0013889
        k(    2) = (   0.0000000   0.0000000   0.1001710), wk =   0.0027778
        k(    3) = (   0.0000000   0.0000000   0.2003420), wk =   0.0027778
        k(    4) = (   0.0000000   0.0962250   0.0000000), wk =   0.0027778
        k(    5) = (   0.0000000   0.0962250   0.1001710), wk =   0.0027778
        k(    6) = (   0.0000000   0.0962250   0.2003420), wk =   0.0027778
        k(    7) = (   0.0000000   0.0962250  -0.2003420), wk =   0.0027778
        k(    8) = (   0.0000000   0.0962250  -0.1001710), wk =   0.0027778
        k(    9) = (   0.0000000   0.1924501   0.0000000), wk =   0.0027778
        k(   10) = (   0.0000000   0.1924501   0.1001710), wk =   0.0027778
        k(   11) = (   0.0000000   0.1924501   0.2003420), wk =   0.0027778
        k(   12) = (   0.0000000   0.1924501  -0.2003420), wk =   0.0027778
        k(   13) = (   0.0000000   0.1924501  -0.1001710), wk =   0.0027778
        k(   14) = (   0.0000000   0.2886751   0.0000000), wk =   0.0027778
        k(   15) = (   0.0000000   0.2886751   0.1001710), wk =   0.0027778
        k(   16) = (   0.0000000   0.2886751   0.2003420), wk =   0.0027778
        k(   17) = (   0.0000000   0.2886751  -0.2003420), wk =   0.0027778
        k(   18) = (   0.0000000   0.2886751  -0.1001710), wk =   0.0027778
        k(   19) = (   0.0000000   0.3849002   0.0000000), wk =   0.0027778
        k(   20) = (   0.0000000   0.3849002   0.1001710), wk =   0.0027778
        k(   21) = (   0.0000000   0.3849002   0.2003420), wk =   0.0027778
        k(   22) = (   0.0000000   0.3849002  -0.2003420), wk =   0.0027778
        k(   23) = (   0.0000000   0.3849002  -0.1001710), wk =   0.0027778
        k(   24) = (   0.0000000   0.4811252   0.0000000), wk =   0.0027778
        k(   25) = (   0.0000000   0.4811252   0.1001710), wk =   0.0027778
        k(   26) = (   0.0000000   0.4811252   0.2003420), wk =   0.0027778
        k(   27) = (   0.0000000   0.4811252  -0.2003420), wk =   0.0027778
        k(   28) = (   0.0000000   0.4811252  -0.1001710), wk =   0.0027778
        k(   29) = (   0.0000000  -0.5773503   0.0000000), wk =   0.0013889
        k(   30) = (   0.0000000  -0.5773503   0.1001710), wk =   0.0027778
        k(   31) = (   0.0000000  -0.5773503   0.2003420), wk =   0.0027778
        k(   32) = (   0.0833333   0.0481125   0.0000000), wk =   0.0027778
        k(   33) = (   0.0833333   0.0481125   0.1001710), wk =   0.0027778
        k(   34) = (   0.0833333   0.0481125   0.2003420), wk =   0.0027778
        k(   35) = (   0.0833333   0.0481125  -0.2003420), wk =   0.0027778
        k(   36) = (   0.0833333   0.0481125  -0.1001710), wk =   0.0027778
        k(   37) = (   0.0833333   0.1443376   0.0000000), wk =   0.0027778
        k(   38) = (   0.0833333   0.1443376   0.1001710), wk =   0.0027778
        k(   39) = (   0.0833333   0.1443376   0.2003420), wk =   0.0027778
        k(   40) = (   0.0833333   0.1443376  -0.2003420), wk =   0.0027778
        k(   41) = (   0.0833333   0.1443376  -0.1001710), wk =   0.0027778
        k(   42) = (   0.0833333   0.2405626   0.0000000), wk =   0.0027778
        k(   43) = (   0.0833333   0.2405626   0.1001710), wk =   0.0027778
        k(   44) = (   0.0833333   0.2405626   0.2003420), wk =   0.0027778
        k(   45) = (   0.0833333   0.2405626  -0.2003420), wk =   0.0027778
        k(   46) = (   0.0833333   0.2405626  -0.1001710), wk =   0.0027778
        k(   47) = (   0.0833333   0.3367877   0.0000000), wk =   0.0027778
        k(   48) = (   0.0833333   0.3367877   0.1001710), wk =   0.0027778
        k(   49) = (   0.0833333   0.3367877   0.2003420), wk =   0.0027778
        k(   50) = (   0.0833333   0.3367877  -0.2003420), wk =   0.0027778
        k(   51) = (   0.0833333   0.3367877  -0.1001710), wk =   0.0027778
        k(   52) = (   0.0833333   0.4330127   0.0000000), wk =   0.0027778
        k(   53) = (   0.0833333   0.4330127   0.1001710), wk =   0.0027778
        k(   54) = (   0.0833333   0.4330127   0.2003420), wk =   0.0027778
        k(   55) = (   0.0833333   0.4330127  -0.2003420), wk =   0.0027778
        k(   56) = (   0.0833333   0.4330127  -0.1001710), wk =   0.0027778
        k(   57) = (   0.0833333   0.5292377   0.0000000), wk =   0.0027778
        k(   58) = (   0.0833333   0.5292377   0.1001710), wk =   0.0027778
        k(   59) = (   0.0833333   0.5292377   0.2003420), wk =   0.0027778
        k(   60) = (   0.0833333   0.5292377  -0.2003420), wk =   0.0027778
[...]
        k(  348) = (  -0.5000000   0.0000000  -0.2003420), wk =   0.0027778
        k(  349) = (  -0.5000000   0.0000000  -0.1001710), wk =   0.0027778
        k(  350) = (  -0.5000000   0.0962250   0.0000000), wk =   0.0027778
        k(  351) = (  -0.5000000   0.0962250   0.1001710), wk =   0.0027778
        k(  352) = (  -0.5000000   0.0962250   0.2003420), wk =   0.0027778
        k(  353) = (  -0.5000000   0.0962250  -0.2003420), wk =   0.0027778
        k(  354) = (  -0.5000000   0.0962250  -0.1001710), wk =   0.0027778
        k(  355) = (  -0.5000000   0.1924501   0.0000000), wk =   0.0027778
        k(  356) = (  -0.5000000   0.1924501   0.1001710), wk =   0.0027778
        k(  357) = (  -0.5000000   0.1924501   0.2003420), wk =   0.0027778
        k(  358) = (  -0.5000000   0.1924501  -0.2003420), wk =   0.0027778
        k(  359) = (  -0.5000000   0.1924501  -0.1001710), wk =   0.0027778
        k(  360) = (  -0.5000000  -0.8660254   0.0000000), wk =   0.0013889
        k(  361) = (  -0.5000000  -0.8660254   0.1001710), wk =   0.0027778
        k(  362) = (  -0.5000000  -0.8660254   0.2003420), wk =   0.0027778

                       cryst. coord.
        k(    1) = (   0.0000000   0.0000000   0.0000000), wk =   0.0013889
        k(    2) = (   0.0000000   0.0000000   0.2000000), wk =   0.0027778
        k(    3) = (   0.0000000   0.0000000   0.4000000), wk =   0.0027778
        k(    4) = (   0.0000000   0.0833333   0.0000000), wk =   0.0027778
        k(    5) = (   0.0000000   0.0833333   0.2000000), wk =   0.0027778
        k(    6) = (   0.0000000   0.0833333   0.4000000), wk =   0.0027778
        k(    7) = (   0.0000000   0.0833333  -0.4000000), wk =   0.0027778
        k(    8) = (   0.0000000   0.0833333  -0.2000000), wk =   0.0027778
        k(    9) = (   0.0000000   0.1666667   0.0000000), wk =   0.0027778
        k(   10) = (   0.0000000   0.1666667   0.2000000), wk =   0.0027778
        k(   11) = (   0.0000000   0.1666667   0.4000000), wk =   0.0027778
        k(   12) = (   0.0000000   0.1666667  -0.4000000), wk =   0.0027778
        k(   13) = (   0.0000000   0.1666667  -0.2000000), wk =   0.0027778
        k(   14) = (   0.0000000   0.2500000   0.0000000), wk =   0.0027778
        k(   15) = (   0.0000000   0.2500000   0.2000000), wk =   0.0027778
        k(   16) = (   0.0000000   0.2500000   0.4000000), wk =   0.0027778
        k(   17) = (   0.0000000   0.2500000  -0.4000000), wk =   0.0027778
        k(   18) = (   0.0000000   0.2500000  -0.2000000), wk =   0.0027778
        k(   19) = (   0.0000000   0.3333333   0.0000000), wk =   0.0027778
        k(   20) = (   0.0000000   0.3333333   0.2000000), wk =   0.0027778
        k(   21) = (   0.0000000   0.3333333   0.4000000), wk =   0.0027778
        k(   22) = (   0.0000000   0.3333333  -0.4000000), wk =   0.0027778
        k(   23) = (   0.0000000   0.3333333  -0.2000000), wk =   0.0027778
        k(   24) = (   0.0000000   0.4166667   0.0000000), wk =   0.0027778
        k(   25) = (   0.0000000   0.4166667   0.2000000), wk =   0.0027778
        k(   26) = (   0.0000000   0.4166667   0.4000000), wk =   0.0027778
        k(   27) = (   0.0000000   0.4166667  -0.4000000), wk =   0.0027778
        k(   28) = (   0.0000000   0.4166667  -0.2000000), wk =   0.0027778
        k(   29) = (   0.0000000  -0.5000000   0.0000000), wk =   0.0013889
        k(   30) = (   0.0000000  -0.5000000   0.2000000), wk =   0.0027778
        k(   31) = (   0.0000000  -0.5000000   0.4000000), wk =   0.0027778
        k(   32) = (   0.0833333  -0.0000000   0.0000000), wk =   0.0027778
        k(   33) = (   0.0833333  -0.0000000   0.2000000), wk =   0.0027778
        k(   34) = (   0.0833333  -0.0000000   0.4000000), wk =   0.0027778
        k(   35) = (   0.0833333  -0.0000000  -0.4000000), wk =   0.0027778
        k(   36) = (   0.0833333  -0.0000000  -0.2000000), wk =   0.0027778
        k(   37) = (   0.0833333   0.0833333   0.0000000), wk =   0.0027778
        k(   38) = (   0.0833333   0.0833333   0.2000000), wk =   0.0027778
        k(   39) = (   0.0833333   0.0833333   0.4000000), wk =   0.0027778
        k(   40) = (   0.0833333   0.0833333  -0.4000000), wk =   0.0027778
        k(   41) = (   0.0833333   0.0833333  -0.2000000), wk =   0.0027778
        k(   42) = (   0.0833333   0.1666667   0.0000000), wk =   0.0027778
        k(   43) = (   0.0833333   0.1666667   0.2000000), wk =   0.0027778
        k(   44) = (   0.0833333   0.1666667   0.4000000), wk =   0.0027778
        k(   45) = (   0.0833333   0.1666667  -0.4000000), wk =   0.0027778
        k(   46) = (   0.0833333   0.1666667  -0.2000000), wk =   0.0027778
        k(   47) = (   0.0833333   0.2500000   0.0000000), wk =   0.0027778
        k(   48) = (   0.0833333   0.2500000   0.2000000), wk =   0.0027778
        k(   49) = (   0.0833333   0.2500000   0.4000000), wk =   0.0027778
        k(   50) = (   0.0833333   0.2500000  -0.4000000), wk =   0.0027778
        k(   51) = (   0.0833333   0.2500000  -0.2000000), wk =   0.0027778
        k(   52) = (   0.0833333   0.3333333   0.0000000), wk =   0.0027778
        k(   53) = (   0.0833333   0.3333333   0.2000000), wk =   0.0027778
        k(   54) = (   0.0833333   0.3333333   0.4000000), wk =   0.0027778
        k(   55) = (   0.0833333   0.3333333  -0.4000000), wk =   0.0027778
        k(   56) = (   0.0833333   0.3333333  -0.2000000), wk =   0.0027778
        k(   57) = (   0.0833333   0.4166667   0.0000000), wk =   0.0027778
        k(   58) = (   0.0833333   0.4166667   0.2000000), wk =   0.0027778
        k(   59) = (   0.0833333   0.4166667   0.4000000), wk =   0.0027778
        k(   60) = (   0.0833333   0.4166667  -0.4000000), wk =   0.0027778
[...]
        k(  348) = (  -0.5000000   0.2500000  -0.4000000), wk =   0.0027778
        k(  349) = (  -0.5000000   0.2500000  -0.2000000), wk =   0.0027778
        k(  350) = (  -0.5000000   0.3333333   0.0000000), wk =   0.0027778
        k(  351) = (  -0.5000000   0.3333333   0.2000000), wk =   0.0027778
        k(  352) = (  -0.5000000   0.3333333   0.4000000), wk =   0.0027778
        k(  353) = (  -0.5000000   0.3333333  -0.4000000), wk =   0.0027778
        k(  354) = (  -0.5000000   0.3333333  -0.2000000), wk =   0.0027778
        k(  355) = (  -0.5000000   0.4166667   0.0000000), wk =   0.0027778
        k(  356) = (  -0.5000000   0.4166667   0.2000000), wk =   0.0027778
        k(  357) = (  -0.5000000   0.4166667   0.4000000), wk =   0.0027778
        k(  358) = (  -0.5000000   0.4166667  -0.4000000), wk =   0.0027778
        k(  359) = (  -0.5000000   0.4166667  -0.2000000), wk =   0.0027778
        k(  360) = (  -0.5000000  -0.5000000   0.0000000), wk =   0.0013889
        k(  361) = (  -0.5000000  -0.5000000   0.2000000), wk =   0.0027778
        k(  362) = (  -0.5000000  -0.5000000   0.4000000), wk =   0.0027778

     Check: negative core charge=   -0.000005
     Generating pointlists ...
     new r_m :   0.3148 (alat units)  1.9610 (a.u.) for type    1
     new r_m :   0.3148 (alat units)  1.9610 (a.u.) for type    2

     Initial potential from superposition of free atoms

     starting charge      33.9998, renormalised to      36.0000

     negative rho (up, down):  1.527E-03 6.251E-04
     Starting wfcs are   28 randomized atomic wfcs

     Self-consistent Calculation

     iteration #  1     ecut=   150.00 Ry     beta= 0.40
     Davidson diagonalization with overlap

     ethr =  1.00E-02,  avg # of iterations =  3.6

     negative rho (up, down):  1.029E-03 8.940E-04

     total energy              =    -286.82687547 Ry
     estimated scf accuracy    <       0.60613271 Ry

     total magnetization       =     3.40 Bohr mag/cell
     absolute magnetization    =     3.61 Bohr mag/cell

[...]

     c_bands:  1 eigenvalues not converged
     ethr =  1.46E-05,  avg # of iterations =  7.0

[...]

     c_bands:  1 eigenvalues not converged
     ethr =  2.75E-09,  avg # of iterations =  4.6

[...]

     total energy              =    -287.11915276 Ry
     estimated scf accuracy    <          1.2E-09 Ry

[...]

     iteration # 18     ecut=   150.00 Ry     beta= 0.40
     Davidson diagonalization with overlap

     ethr =  3.25E-12,  avg # of iterations =  3.2

     negative rho (up, down):  7.860E-04 7.860E-04

     Magnetic moment per site  (integrated on atomic sphere of radius R)
     atom   1 (R=0.315)  charge=  4.5241  magn=  0.0000
     atom   2 (R=0.315)  charge=  4.5241  magn=  0.0000
     atom   3 (R=0.315)  charge=  9.8665  magn=  0.0000
     atom   4 (R=0.315)  charge=  9.8665  magn= -0.0000

     End of self-consistent calculation

 ------ SPIN UP ------------

          k = 0.0000 0.0000 0.0000 ( 12877 PWs)   bands (ev):

   -44.2371 -44.2266 -20.6438 -20.4949 -20.4253 -20.4253 -20.4127 -20.4127
    -2.4577  -1.3080   5.4461   9.5606   9.5610   9.6975  11.0532  11.5969
    11.5971  12.8897  12.8898  13.1829  13.1829  14.4173

     occupation numbers
     1.0000   1.0000   1.0000   1.0000   1.0000   1.0000   1.0000   1.0000
     1.0000   1.0000   1.0000   1.0000   1.0000   1.0000   1.0000   1.0000
     1.0000   1.0791   1.0791   0.2885   0.2883   0.0000

[...]

          k =-0.5000-0.2887 0.0000 ( 13018 PWs)   bands (ev):

[...]

 ------ SPIN DOWN ----------

[...]

          k = 0.4167 0.1443-0.1002 ( 12980 PWs)   bands (ev):

[...]

          k =-0.5000-0.8660 0.2003 ( 12968 PWs)   bands (ev):

   -44.2147 -44.2117 -20.5988 -20.5902 -20.5525 -20.5133 -20.4617 -20.4572
    -0.7137  -0.6117   5.9745   6.3237   8.0153   8.1737   9.2611   9.6279
    11.7169  12.0647  14.7707  14.8120  14.9513  14.9603

     occupation numbers
     1.0000   1.0000   1.0000   1.0000   1.0000   1.0000   1.0000   1.0000
     1.0000   1.0000   1.0000   1.0000   1.0000   1.0000   1.0000   1.0000
     1.0000   1.0000   0.0000   0.0000   0.0000   0.0000

     the Fermi energy is    13.1476 ev

!    total energy              =    -287.11915276 Ry
     estimated scf accuracy    <          2.2E-10 Ry
     smearing contrib. (-TS)   =      -0.00010612 Ry
     internal energy E=F+TS    =    -287.11904664 Ry

     The total energy is F=E-TS. E is the sum of the following terms:
     one-electron contribution =     -82.53420608 Ry
     hartree contribution      =      56.92965180 Ry
     xc contribution           =     -53.29035194 Ry
     ewald contribution        =    -208.22414043 Ry

     total magnetization       =     0.00 Bohr mag/cell
     absolute magnetization    =     0.00 Bohr mag/cell

     convergence has been achieved in  18 iterations

     Writing all to output data dir ./out/TiS.save/

     General routines

     Parallel routines

   This run was terminated on:   7:42:47   6Oct2023

   JOB DONE.