     Program PWSCF v.6.7MaX starts on 26Oct2023 at  7:55:48

     R & G space division:  proc/nbgrp/npool/nimage =       4
     Waiting for input...
     Reading input from standard input

     Current dimensions of program PWSCF are:
     Max number of different atomic species (ntypx) = 10
     Max number of k-points (npk) =  40000
     Max angular momentum in pseudopotentials (lmaxx) =  3
     file Mg.pbe-spnl-rrkjus_psl.1.0.0.UPF: wavefunction(s)  2P renormalized
     file Bi.pbe-dn-rrkjus_psl.1.0.0.UPF: wavefunction(s)  5D renormalized

     Message from routine setup:
     using ibrav=0 with symmetry is DISCOURAGED, use correct ibrav instead

     bravais-lattice index     =            0
     lattice parameter (alat)  =       8.8863  a.u.
     unit-cell volume          =     960.2083 (a.u.)^3
     number of atoms/cell      =            5
     number of atomic types    =            2
     number of electrons       =        60.00
     number of Kohn-Sham states=           36
     kinetic-energy cutoff     =      45.0000  Ry
     charge density cutoff     =     360.0000  Ry
     scf convergence threshold =      1.0E-09
     mixing beta               =       0.4000
     number of iterations used =            8  plain     mixing
     Exchange-correlation= PBE
                           (   1   4   3   4   0   0   0)

     celldm(1)=   8.886344  celldm(2)=   0.000000  celldm(3)=   0.000000
     celldm(4)=   0.000000  celldm(5)=   0.000000  celldm(6)=   0.000000

     crystal axes: (cart. coord. in units of alat)
               a(1) = (  -0.500000  -0.866025  -0.000000 )
               a(2) = (  -0.500000   0.866025   0.000000 )
               a(3) = (   0.000000   0.000000  -1.580030 )

     reciprocal axes: (cart. coord. in units 2 pi/alat)
               b(1) = ( -1.000000 -0.577350 -0.000000 )
               b(2) = ( -1.000000  0.577350  0.000000 )
               b(3) = (  0.000000  0.000000 -0.632899 )

     PseudoPot. # 1 for Mg read from file:
     ../pseudo/Mg.pbe-spnl-rrkjus_psl.1.0.0.UPF
     MD5 check sum: 9996ca2d31208a261ae42168ce6c5fae
     Pseudo is Ultrasoft + core correction, Zval = 10.0
     Generated using &quot;atomic&quot; code by A. Dal Corso  v.6.3
     Using radial grid of 1129 points,  4 beta functions with:
                l(1) =   0
                l(2) =   0
                l(3) =   1
                l(4) =   1
     Q(r) pseudized with 0 coefficients

     PseudoPot. # 2 for Bi read from file:
     ../pseudo/Bi.pbe-dn-rrkjus_psl.1.0.0.UPF
     MD5 check sum: f9abe7488ae443f53c935a63d0032572
     Pseudo is Ultrasoft + core correction, Zval = 15.0
     Generated using &quot;atomic&quot; code by A. Dal Corso  v.6.2.2
     Using radial grid of 1283 points,  6 beta functions with:
                l(1) =   0
                l(2) =   0
                l(3) =   1
                l(4) =   1
                l(5) =   2
                l(6) =   2
     Q(r) pseudized with 0 coefficients

     atomic species   valence    mass     pseudopotential
        Mg            10.00    24.30500     Mg( 1.00)
        Bi            15.00   208.98040     Bi( 1.00)

     12 Sym. Ops., with inversion, found

                                    s                        frac. trans.

      isym =  1     identity

 cryst.   s( 1) = (     1          0          0      )
                  (     0          1          0      )
                  (     0          0          1      )

 cart.    s( 1) = (  1.0000000  0.0000000  0.0000000 )
                  (  0.0000000  1.0000000  0.0000000 )
                  (  0.0000000  0.0000000  1.0000000 )

      isym =  2     180 deg rotation - cart. axis [1,0,0]

[...]

      isym =  3     120 deg rotation - cryst. axis [0,0,1]

[...]

      isym =  6     180 deg rotation - cryst. axis [1,1,0]

[...]

      isym =  7     inversion

[...]

      isym =  8     inv. 180 deg rotation - cart. axis [1,0,0]

[...]

      isym =  9     inv. 120 deg rotation - cryst. axis [0,0,1]

 cryst.   s( 9) = (     1          1          0      )
                  (    -1          0          0      )
                  (     0          0         -1      )

 cart.    s( 9) = (  0.5000000  0.8660254  0.0000000 )
                  ( -0.8660254  0.5000000  0.0000000 )
                  (  0.0000000  0.0000000 -1.0000000 )

[...]

 cryst.   s(10) = (     0         -1          0      )
                  (     1          1          0      )
                  (     0          0         -1      )

 cart.    s(10) = (  0.5000000 -0.8660254  0.0000000 )
                  (  0.8660254  0.5000000  0.0000000 )
                  (  0.0000000  0.0000000 -1.0000000 )

[...]

      isym = 12     inv. 180 deg rotation - cryst. axis [1,1,0]

 cryst.   s(12) = (    -1          0          0      )
                  (     1          1          0      )
                  (     0          0          1      )

 cart.    s(12) = (  0.5000000 -0.8660254  0.0000000 )
                  ( -0.8660254 -0.5000000  0.0000000 )
                  (  0.0000000  0.0000000  1.0000000 )

   Cartesian axes

     site n.     atom                  positions (alat units)
         1           Mg  tau(   1) = (   0.0000000   0.0000000   0.0000000  )
         2           Mg  tau(   2) = (  -0.5000000  -0.2886751  -0.5867145  )
         3           Mg  tau(   3) = (  -0.5000000   0.2886751  -0.9933158  )
         4           Bi  tau(   4) = (  -0.5000000  -0.2886751  -1.2306453  )
         5           Bi  tau(   5) = (  -0.5000000   0.2886751  -0.3493850  )

   Crystallographic axes

     site n.     atom                  positions (cryst. coord.)
         1           Mg  tau(   1) = ( -0.0000000  0.0000000  0.0000000  )
         2           Mg  tau(   2) = (  0.6666667  0.3333333  0.3713312  )
         3           Mg  tau(   3) = (  0.3333333  0.6666667  0.6286688  )
         4           Bi  tau(   4) = (  0.6666667  0.3333333  0.7788745  )
         5           Bi  tau(   5) = (  0.3333333  0.6666667  0.2211255  )

     number of k points=    40  Marzari-Vanderbilt smearing, width (Ry)=  0.0147
                       cart. coord. in units 2pi/alat
        k(    1) = (   0.0000000   0.0000000   0.0000000), wk =   0.0062500
        k(    2) = (   0.0000000   0.0000000  -0.1265799), wk =   0.0125000
        k(    3) = (   0.0000000   0.0000000  -0.2531597), wk =   0.0125000
        k(    4) = (  -0.1250000   0.0721688   0.0000000), wk =   0.0375000
        k(    5) = (  -0.1250000   0.0721688  -0.1265799), wk =   0.0375000
        k(    6) = (  -0.1250000   0.0721688  -0.2531597), wk =   0.0375000
        k(    7) = (  -0.2500000   0.1443376   0.0000000), wk =   0.0375000
        k(    8) = (  -0.2500000   0.1443376  -0.1265799), wk =   0.0375000
        k(    9) = (  -0.2500000   0.1443376  -0.2531597), wk =   0.0375000
        k(   10) = (  -0.3750000   0.2165064   0.0000000), wk =   0.0375000
        k(   11) = (  -0.3750000   0.2165064  -0.1265799), wk =   0.0375000
        k(   12) = (  -0.3750000   0.2165064  -0.2531597), wk =   0.0375000
        k(   13) = (   0.5000000  -0.2886751  -0.0000000), wk =   0.0187500
        k(   14) = (   0.5000000  -0.2886751  -0.1265799), wk =   0.0375000
        k(   15) = (   0.5000000  -0.2886751  -0.2531597), wk =   0.0375000
        k(   16) = (  -0.2500000   0.0000000   0.0000000), wk =   0.0375000
        k(   17) = (  -0.2500000   0.0000000  -0.1265799), wk =   0.0750000
        k(   18) = (  -0.2500000   0.0000000  -0.2531597), wk =   0.0750000
        k(   19) = (  -0.3750000   0.0721688   0.0000000), wk =   0.0750000
        k(   20) = (  -0.3750000   0.0721688  -0.1265799), wk =   0.0750000
        k(   21) = (  -0.3750000   0.0721688  -0.2531597), wk =   0.0750000
        k(   22) = (  -0.5000000   0.1443376   0.0000000), wk =   0.0750000
        k(   23) = (  -0.5000000   0.1443376  -0.1265799), wk =   0.0750000
        k(   24) = (  -0.5000000   0.1443376  -0.2531597), wk =   0.0750000
        k(   25) = (  -0.5000000   0.0000000   0.0000000), wk =   0.0375000
        k(   26) = (  -0.5000000   0.0000000  -0.1265799), wk =   0.0750000
        k(   27) = (  -0.5000000   0.0000000  -0.2531597), wk =   0.0750000
        k(   28) = (  -0.6250000   0.0721688   0.0000000), wk =   0.0375000
        k(   29) = (  -0.6250000   0.0721688  -0.1265799), wk =   0.0750000
        k(   30) = (  -0.6250000   0.0721688  -0.2531597), wk =   0.0750000
        k(   31) = (   0.1250000   0.0721688   0.1265799), wk =   0.0375000
        k(   32) = (   0.1250000   0.0721688   0.2531597), wk =   0.0375000
        k(   33) = (   0.2500000   0.1443376   0.1265799), wk =   0.0375000
        k(   34) = (   0.2500000   0.1443376   0.2531597), wk =   0.0375000
        k(   35) = (   0.3750000   0.2165064   0.1265799), wk =   0.0375000
        k(   36) = (   0.3750000   0.2165064   0.2531597), wk =   0.0375000
        k(   37) = (   0.3750000   0.0721688   0.1265799), wk =   0.0750000
        k(   38) = (   0.3750000   0.0721688   0.2531597), wk =   0.0750000
        k(   39) = (   0.5000000   0.1443376   0.1265799), wk =   0.0750000
        k(   40) = (   0.5000000   0.1443376   0.2531597), wk =   0.0750000

                       cryst. coord.
        k(    1) = (  -0.0000000   0.0000000   0.0000000), wk =   0.0062500
        k(    2) = (   0.0000000   0.0000000   0.2000000), wk =   0.0125000
        k(    3) = (   0.0000000   0.0000000   0.4000000), wk =   0.0125000
        k(    4) = (   0.0000000   0.1250000   0.0000000), wk =   0.0375000
        k(    5) = (   0.0000000   0.1250000   0.2000000), wk =   0.0375000
        k(    6) = (   0.0000000   0.1250000   0.4000000), wk =   0.0375000
        k(    7) = (   0.0000000   0.2500000   0.0000000), wk =   0.0375000
        k(    8) = (   0.0000000   0.2500000   0.2000000), wk =   0.0375000
        k(    9) = (   0.0000000   0.2500000   0.4000000), wk =   0.0375000
        k(   10) = (   0.0000000   0.3750000   0.0000000), wk =   0.0375000
        k(   11) = (   0.0000000   0.3750000   0.2000000), wk =   0.0375000
        k(   12) = (   0.0000000   0.3750000   0.4000000), wk =   0.0375000
        k(   13) = (  -0.0000000  -0.5000000   0.0000000), wk =   0.0187500
        k(   14) = (  -0.0000000  -0.5000000   0.2000000), wk =   0.0375000
        k(   15) = (  -0.0000000  -0.5000000   0.4000000), wk =   0.0375000
        k(   16) = (   0.1250000   0.1250000   0.0000000), wk =   0.0375000
        k(   17) = (   0.1250000   0.1250000   0.2000000), wk =   0.0750000
        k(   18) = (   0.1250000   0.1250000   0.4000000), wk =   0.0750000
        k(   19) = (   0.1250000   0.2500000   0.0000000), wk =   0.0750000
        k(   20) = (   0.1250000   0.2500000   0.2000000), wk =   0.0750000
        k(   21) = (   0.1250000   0.2500000   0.4000000), wk =   0.0750000
        k(   22) = (   0.1250000   0.3750000   0.0000000), wk =   0.0750000
        k(   23) = (   0.1250000   0.3750000   0.2000000), wk =   0.0750000
        k(   24) = (   0.1250000   0.3750000   0.4000000), wk =   0.0750000
        k(   25) = (   0.2500000   0.2500000   0.0000000), wk =   0.0375000
        k(   26) = (   0.2500000   0.2500000   0.2000000), wk =   0.0750000
        k(   27) = (   0.2500000   0.2500000   0.4000000), wk =   0.0750000
        k(   28) = (   0.2500000   0.3750000   0.0000000), wk =   0.0375000
        k(   29) = (   0.2500000   0.3750000   0.2000000), wk =   0.0750000
        k(   30) = (   0.2500000   0.3750000   0.4000000), wk =   0.0750000
        k(   31) = (  -0.1250000  -0.0000000  -0.2000000), wk =   0.0375000
        k(   32) = (  -0.1250000  -0.0000000  -0.4000000), wk =   0.0375000
        k(   33) = (  -0.2500000  -0.0000000  -0.2000000), wk =   0.0375000
        k(   34) = (  -0.2500000  -0.0000000  -0.4000000), wk =   0.0375000
        k(   35) = (  -0.3750000  -0.0000000  -0.2000000), wk =   0.0375000
        k(   36) = (  -0.3750000  -0.0000000  -0.4000000), wk =   0.0375000
        k(   37) = (  -0.2500000  -0.1250000  -0.2000000), wk =   0.0750000
        k(   38) = (  -0.2500000  -0.1250000  -0.4000000), wk =   0.0750000
        k(   39) = (  -0.3750000  -0.1250000  -0.2000000), wk =   0.0750000
        k(   40) = (  -0.3750000  -0.1250000  -0.4000000), wk =   0.0750000

     Check: negative core charge=   -0.000010

     Initial potential from superposition of free atoms

     starting charge   59.99560, renormalised to   60.00000
     Starting wfcs are   33 randomized atomic wfcs +    3 random wfcs

     Self-consistent Calculation

     iteration #  1     ecut=    45.00 Ry     beta= 0.40
     Davidson diagonalization with overlap
     ethr =  1.00E-02,  avg # of iterations =  5.0

     Threshold (ethr) on eigenvalues was too large:
     Diagonalizing with lowered threshold

     Davidson diagonalization with overlap
     ethr =  2.07E-04,  avg # of iterations =  4.3

     total energy              =    -690.55470706 Ry
     estimated scf accuracy    <       0.11884553 Ry

[...]

     total energy              =    -690.56431554 Ry
     estimated scf accuracy    <          9.6E-09 Ry

     iteration # 10     ecut=    45.00 Ry     beta= 0.40
     Davidson diagonalization with overlap
     ethr =  1.59E-11,  avg # of iterations =  2.0

     End of self-consistent calculation

          k = 0.0000 0.0000 0.0000 (  4925 PWs)   bands (ev):

   -69.7593 -69.1605 -69.1596 -36.5108 -36.5072 -36.5072 -35.9135 -35.9135
   -35.9104 -35.9104 -35.9092 -35.9088 -14.7275 -14.7275 -14.7270 -14.7270
   -14.7174 -14.7164 -14.6981 -14.6981 -14.6881 -14.6881  -3.9691  -3.0900
     2.6305   6.4565   6.4565   7.1589   7.1589   7.2099   7.4085   8.2238
    10.5192  10.5192  11.2168  11.4351

     occupation numbers
     1.0000   1.0000   1.0000   1.0000   1.0000   1.0000   1.0000   1.0000
     1.0000   1.0000   1.0000   1.0000   1.0000   1.0000   1.0000   1.0000
     1.0000   1.0000   1.0000   1.0000   1.0000   1.0000   1.0000   1.0000
     1.0000   1.0000   1.0000   0.9315   0.9315   0.7757   0.1439   0.0000
     0.0000   0.0000   0.0000   0.0000

[...]

          k =-0.1250 0.0722 0.0000 (  4905 PWs)   bands (ev):

[...]

          k =-0.6250 0.0722-0.2532 (  4892 PWs)   bands (ev):

[...]

          k = 0.5000 0.1443 0.2532 (  4893 PWs)   bands (ev):

   -69.7592 -69.1601 -69.1599 -36.5111 -36.5067 -36.5059 -35.9136 -35.9125
   -35.9121 -35.9095 -35.9078 -35.9074 -14.7313 -14.7276 -14.7263 -14.7229
   -14.7151 -14.7121 -14.6946 -14.6932 -14.6913 -14.6860  -3.1354  -3.0137
     2.8285   3.1790   4.6708   5.3560   5.7903   6.4689   8.3344   8.8127
     9.5934  10.3672  10.4880  12.0710

     occupation numbers
     1.0000   1.0000   1.0000   1.0000   1.0000   1.0000   1.0000   1.0000
     1.0000   1.0000   1.0000   1.0000   1.0000   1.0000   1.0000   1.0000
     1.0000   1.0000   1.0000   1.0000   1.0000   1.0000   1.0000   1.0000
     1.0000   1.0000   1.0000   1.0000   1.0000   1.0000   0.0000   0.0000
     0.0000   0.0000   0.0000   0.0000

     the Fermi energy is     7.3124 ev

!    total energy              =    -690.56431555 Ry
     estimated scf accuracy    <          4.7E-10 Ry
     smearing contrib. (-TS)   =       0.00065284 Ry
     internal energy E=F+TS    =    -690.56496839 Ry

     The total energy is F=E-TS. E is the sum of the following terms:
     one-electron contribution =    -449.17351721 Ry
     hartree contribution      =     234.18379451 Ry
     xc contribution           =    -117.73409644 Ry
     ewald contribution        =    -357.84114925 Ry

     convergence has been achieved in  10 iterations

     Writing output data file ../out/m2.save/

     General routines

     Parallel routines

   This run was terminated on:   8:29:56  26Oct2023

   JOB DONE.