     Program PWSCF v.7.1 starts on 27May2023 at 16:35:50

     Reading input from Mg3Bi2.scf.in

     Current dimensions of program PWSCF are:
     Max number of different atomic species (ntypx) = 10
     Max number of k-points (npk) =  40000
     Max angular momentum in pseudopotentials (lmaxx) =  4
     file Mg.pbe-spnl-rrkjus_psl.1.0.0.UPF: wavefunction(s)  2P renormalized
     file Bi.pbe-dn-rrkjus_psl.1.0.0.UPF: wavefunction(s)  5D renormalized
     Message from routine setup:
     using ibrav=0 with symmetry is DISCOURAGED, use correct ibrav instead

     K-points division:     npool     =      30
     Subspace diagonalization in iterative solution of the eigenvalue problem:
     a serial algorithm will be used

     Using Slab Decomposition

     bravais-lattice index     =            0
     lattice parameter (alat)  =       8.8863  a.u.
     unit-cell volume          =     960.2083 (a.u.)^3
     number of atoms/cell      =            5
     number of atomic types    =            2
     number of electrons       =        60.00
     number of Kohn-Sham states=           40
     kinetic-energy cutoff     =      45.0000  Ry
     charge density cutoff     =     360.0000  Ry
     scf convergence threshold =      1.0E-09
     mixing beta               =       0.4000
     number of iterations used =            8  plain     mixing
     Exchange-correlation= PBE
                           (   1   4   3   4   0   0   0)

     celldm(1)=   8.886344  celldm(2)=   0.000000  celldm(3)=   0.000000
     celldm(4)=   0.000000  celldm(5)=   0.000000  celldm(6)=   0.000000

     crystal axes: (cart. coord. in units of alat)
               a(1) = (  -0.500000  -0.866025  -0.000000 )
               a(2) = (  -0.500000   0.866025   0.000000 )
               a(3) = (   0.000000   0.000000  -1.580030 )

     reciprocal axes: (cart. coord. in units 2 pi/alat)
               b(1) = ( -1.000000 -0.577350 -0.000000 )
               b(2) = ( -1.000000  0.577350  0.000000 )
               b(3) = (  0.000000  0.000000 -0.632899 )

     PseudoPot. # 1 for Mg read from file:
     ../pseudo/Mg.pbe-spnl-rrkjus_psl.1.0.0.UPF
     MD5 check sum: 9996ca2d31208a261ae42168ce6c5fae
     Pseudo is Ultrasoft + core correction, Zval = 10.0
     Generated using &quot;atomic&quot; code by A. Dal Corso  v.6.3
     Using radial grid of 1129 points,  4 beta functions with:
                l(1) =   0
                l(2) =   0
                l(3) =   1
                l(4) =   1
     Q(r) pseudized with 0 coefficients

     PseudoPot. # 2 for Bi read from file:
     ../pseudo/Bi.pbe-dn-rrkjus_psl.1.0.0.UPF
     MD5 check sum: f9abe7488ae443f53c935a63d0032572
     Pseudo is Ultrasoft + core correction, Zval = 15.0
     Generated using &quot;atomic&quot; code by A. Dal Corso  v.6.2.2
     Using radial grid of 1283 points,  6 beta functions with:
                l(1) =   0
                l(2) =   0
                l(3) =   1
                l(4) =   1
                l(5) =   2
                l(6) =   2
     Q(r) pseudized with 0 coefficients

     atomic species   valence    mass     pseudopotential
        Mg            10.00    24.30500     Mg( 1.00)
        Bi            15.00   208.98040     Bi( 1.00)

     12 Sym. Ops., with inversion, found

                                    s                        frac. trans.

      isym =  1     identity

 cryst.   s( 1) = (     1          0          0      )
                  (     0          1          0      )
                  (     0          0          1      )

 cart.    s( 1) = (  1.0000000 -0.0000000  0.0000000 )
                  ( -0.0000000  1.0000000  0.0000000 )
                  (  0.0000000  0.0000000  1.0000000 )

      isym =  2     180 deg rotation - cart. axis [1,0,0]

[...]

      isym =  3     120 deg rotation - cryst. axis [0,0,1]

[...]

      isym =  6     180 deg rotation - cryst. axis [1,1,0]

[...]

      isym =  7     inversion

[...]

      isym =  8     inv. 180 deg rotation - cart. axis [1,0,0]

[...]

      isym =  9     inv. 120 deg rotation - cryst. axis [0,0,1]

 cryst.   s( 9) = (     1          1          0      )
                  (    -1          0          0      )
                  (     0          0         -1      )

 cart.    s( 9) = (  0.5000000  0.8660254  0.0000000 )
                  ( -0.8660254  0.5000000  0.0000000 )
                  (  0.0000000  0.0000000 -1.0000000 )

[...]

 cryst.   s(10) = (     0         -1          0      )
                  (     1          1          0      )
                  (     0          0         -1      )

 cart.    s(10) = (  0.5000000 -0.8660254  0.0000000 )
                  (  0.8660254  0.5000000  0.0000000 )
                  (  0.0000000  0.0000000 -1.0000000 )

[...]

      isym = 12     inv. 180 deg rotation - cryst. axis [1,1,0]

 cryst.   s(12) = (    -1          0          0      )
                  (     1          1          0      )
                  (     0          0          1      )

 cart.    s(12) = (  0.5000000 -0.8660254  0.0000000 )
                  ( -0.8660254 -0.5000000  0.0000000 )
                  (  0.0000000  0.0000000  1.0000000 )

   Cartesian axes

     site n.     atom                  positions (alat units)
         1           Mg  tau(   1) = (   0.0000000   0.0000000   0.0000000  )
         2           Mg  tau(   2) = (  -0.5000000  -0.2886751  -0.5867145  )
         3           Mg  tau(   3) = (  -0.5000000   0.2886751  -0.9933158  )
         4           Bi  tau(   4) = (  -0.5000000  -0.2886751  -1.2306453  )
         5           Bi  tau(   5) = (  -0.5000000   0.2886751  -0.3493850  )

   Crystallographic axes

     site n.     atom                  positions (cryst. coord.)
         1           Mg  tau(   1) = ( -0.0000000  0.0000000  0.0000000  )
         2           Mg  tau(   2) = (  0.6666667  0.3333333  0.3713312  )
         3           Mg  tau(   3) = (  0.3333333  0.6666667  0.6286688  )
         4           Bi  tau(   4) = (  0.6666667  0.3333333  0.7788745  )
         5           Bi  tau(   5) = (  0.3333333  0.6666667  0.2211255  )

     number of k points=    40  Marzari-Vanderbilt smearing, width (Ry)=  0.0147
                       cart. coord. in units 2pi/alat
        k(    1) = (   0.0000000   0.0000000   0.0000000), wk =   0.0062500
        k(    2) = (   0.0000000   0.0000000  -0.1265799), wk =   0.0125000
        k(    3) = (   0.0000000   0.0000000  -0.2531597), wk =   0.0125000
        k(    4) = (  -0.1250000   0.0721688   0.0000000), wk =   0.0375000
        k(    5) = (  -0.1250000   0.0721688  -0.1265799), wk =   0.0375000
        k(    6) = (  -0.1250000   0.0721688  -0.2531597), wk =   0.0375000
        k(    7) = (  -0.2500000   0.1443376   0.0000000), wk =   0.0375000
        k(    8) = (  -0.2500000   0.1443376  -0.1265799), wk =   0.0375000
        k(    9) = (  -0.2500000   0.1443376  -0.2531597), wk =   0.0375000
        k(   10) = (  -0.3750000   0.2165064   0.0000000), wk =   0.0375000
        k(   11) = (  -0.3750000   0.2165064  -0.1265799), wk =   0.0375000
        k(   12) = (  -0.3750000   0.2165064  -0.2531597), wk =   0.0375000
        k(   13) = (   0.5000000  -0.2886751  -0.0000000), wk =   0.0187500
        k(   14) = (   0.5000000  -0.2886751  -0.1265799), wk =   0.0375000
        k(   15) = (   0.5000000  -0.2886751  -0.2531597), wk =   0.0375000
        k(   16) = (  -0.2500000   0.0000000   0.0000000), wk =   0.0375000
        k(   17) = (  -0.2500000   0.0000000  -0.1265799), wk =   0.0750000
        k(   18) = (  -0.2500000   0.0000000  -0.2531597), wk =   0.0750000
        k(   19) = (  -0.3750000   0.0721688   0.0000000), wk =   0.0750000
        k(   20) = (  -0.3750000   0.0721688  -0.1265799), wk =   0.0750000
        k(   21) = (  -0.3750000   0.0721688  -0.2531597), wk =   0.0750000
        k(   22) = (  -0.5000000   0.1443376   0.0000000), wk =   0.0750000
        k(   23) = (  -0.5000000   0.1443376  -0.1265799), wk =   0.0750000
        k(   24) = (  -0.5000000   0.1443376  -0.2531597), wk =   0.0750000
        k(   25) = (  -0.5000000   0.0000000   0.0000000), wk =   0.0375000
        k(   26) = (  -0.5000000   0.0000000  -0.1265799), wk =   0.0750000
        k(   27) = (  -0.5000000   0.0000000  -0.2531597), wk =   0.0750000
        k(   28) = (  -0.6250000   0.0721688   0.0000000), wk =   0.0375000
        k(   29) = (  -0.6250000   0.0721688  -0.1265799), wk =   0.0750000
        k(   30) = (  -0.6250000   0.0721688  -0.2531597), wk =   0.0750000
        k(   31) = (   0.1250000   0.0721688   0.1265799), wk =   0.0375000
        k(   32) = (   0.1250000   0.0721688   0.2531597), wk =   0.0375000
        k(   33) = (   0.2500000   0.1443376   0.1265799), wk =   0.0375000
        k(   34) = (   0.2500000   0.1443376   0.2531597), wk =   0.0375000
        k(   35) = (   0.3750000   0.2165064   0.1265799), wk =   0.0375000
        k(   36) = (   0.3750000   0.2165064   0.2531597), wk =   0.0375000
        k(   37) = (   0.3750000   0.0721688   0.1265799), wk =   0.0750000
        k(   38) = (   0.3750000   0.0721688   0.2531597), wk =   0.0750000
        k(   39) = (   0.5000000   0.1443376   0.1265799), wk =   0.0750000
        k(   40) = (   0.5000000   0.1443376   0.2531597), wk =   0.0750000

                       cryst. coord.
        k(    1) = (  -0.0000000   0.0000000   0.0000000), wk =   0.0062500
        k(    2) = (   0.0000000   0.0000000   0.2000000), wk =   0.0125000
        k(    3) = (   0.0000000   0.0000000   0.4000000), wk =   0.0125000
        k(    4) = (   0.0000000   0.1250000   0.0000000), wk =   0.0375000
        k(    5) = (   0.0000000   0.1250000   0.2000000), wk =   0.0375000
        k(    6) = (   0.0000000   0.1250000   0.4000000), wk =   0.0375000
        k(    7) = (   0.0000000   0.2500000   0.0000000), wk =   0.0375000
        k(    8) = (   0.0000000   0.2500000   0.2000000), wk =   0.0375000
        k(    9) = (   0.0000000   0.2500000   0.4000000), wk =   0.0375000
        k(   10) = (   0.0000000   0.3750000   0.0000000), wk =   0.0375000
        k(   11) = (   0.0000000   0.3750000   0.2000000), wk =   0.0375000
        k(   12) = (   0.0000000   0.3750000   0.4000000), wk =   0.0375000
        k(   13) = (  -0.0000000  -0.5000000   0.0000000), wk =   0.0187500
        k(   14) = (  -0.0000000  -0.5000000   0.2000000), wk =   0.0375000
        k(   15) = (  -0.0000000  -0.5000000   0.4000000), wk =   0.0375000
        k(   16) = (   0.1250000   0.1250000   0.0000000), wk =   0.0375000
        k(   17) = (   0.1250000   0.1250000   0.2000000), wk =   0.0750000
        k(   18) = (   0.1250000   0.1250000   0.4000000), wk =   0.0750000
        k(   19) = (   0.1250000   0.2500000   0.0000000), wk =   0.0750000
        k(   20) = (   0.1250000   0.2500000   0.2000000), wk =   0.0750000
        k(   21) = (   0.1250000   0.2500000   0.4000000), wk =   0.0750000
        k(   22) = (   0.1250000   0.3750000   0.0000000), wk =   0.0750000
        k(   23) = (   0.1250000   0.3750000   0.2000000), wk =   0.0750000
        k(   24) = (   0.1250000   0.3750000   0.4000000), wk =   0.0750000
        k(   25) = (   0.2500000   0.2500000   0.0000000), wk =   0.0375000
        k(   26) = (   0.2500000   0.2500000   0.2000000), wk =   0.0750000
        k(   27) = (   0.2500000   0.2500000   0.4000000), wk =   0.0750000
        k(   28) = (   0.2500000   0.3750000   0.0000000), wk =   0.0375000
        k(   29) = (   0.2500000   0.3750000   0.2000000), wk =   0.0750000
        k(   30) = (   0.2500000   0.3750000   0.4000000), wk =   0.0750000
        k(   31) = (  -0.1250000  -0.0000000  -0.2000000), wk =   0.0375000
        k(   32) = (  -0.1250000  -0.0000000  -0.4000000), wk =   0.0375000
        k(   33) = (  -0.2500000  -0.0000000  -0.2000000), wk =   0.0375000
        k(   34) = (  -0.2500000  -0.0000000  -0.4000000), wk =   0.0375000
        k(   35) = (  -0.3750000  -0.0000000  -0.2000000), wk =   0.0375000
        k(   36) = (  -0.3750000  -0.0000000  -0.4000000), wk =   0.0375000
        k(   37) = (  -0.2500000  -0.1250000  -0.2000000), wk =   0.0750000
        k(   38) = (  -0.2500000  -0.1250000  -0.4000000), wk =   0.0750000
        k(   39) = (  -0.3750000  -0.1250000  -0.2000000), wk =   0.0750000
        k(   40) = (  -0.3750000  -0.1250000  -0.4000000), wk =   0.0750000

     Check: negative core charge=   -0.000010

     Initial potential from superposition of free atoms

     starting charge      59.9956, renormalised to      60.0000
     Starting wfcs are   33 randomized atomic wfcs +    7 random wfcs

     Self-consistent Calculation

     iteration #  1     ecut=    45.00 Ry     beta= 0.40
     Davidson diagonalization with overlap

     ethr =  1.00E-02,  avg # of iterations =  5.3

     Threshold (ethr) on eigenvalues was too large:
     Diagonalizing with lowered threshold

     Davidson diagonalization with overlap

[...]

     total energy              =    -690.55578990 Ry
     estimated scf accuracy    <       0.11693707 Ry

[...]

     total energy              =    -690.56431554 Ry
     estimated scf accuracy    <          4.1E-09 Ry

     iteration # 10     ecut=    45.00 Ry     beta= 0.40
     Davidson diagonalization with overlap

     ethr =  6.78E-12,  avg # of iterations =  2.2

     End of self-consistent calculation

          k = 0.0000 0.0000 0.0000 (  4925 PWs)   bands (ev):

   -69.7593 -69.1605 -69.1596 -36.5109 -36.5073 -36.5073 -35.9135 -35.9135
   -35.9104 -35.9104 -35.9092 -35.9088 -14.7274 -14.7274 -14.7269 -14.7269
   -14.7173 -14.7163 -14.6980 -14.6980 -14.6880 -14.6880  -3.9691  -3.0899
     2.6305   6.4565   6.4565   7.1589   7.1589   7.2099   7.4085   8.2238
    10.5192  10.5192  11.2167  11.4351  11.4351  11.8484  12.5584  12.5631

     occupation numbers
     1.0000   1.0000   1.0000   1.0000   1.0000   1.0000   1.0000   1.0000
     1.0000   1.0000   1.0000   1.0000   1.0000   1.0000   1.0000   1.0000
     1.0000   1.0000   1.0000   1.0000   1.0000   1.0000   1.0000   1.0000
     1.0000   1.0000   1.0000   0.9314   0.9314   0.7757   0.1438   0.0000
     0.0000   0.0000   0.0000   0.0000   0.0000   0.0000   0.0000   0.0000

[...]

          k =-0.1250 0.0722 0.0000 (  4905 PWs)   bands (ev):

[...]

          k =-0.6250 0.0722-0.2532 (  4892 PWs)   bands (ev):

[...]

          k = 0.5000 0.1443 0.2532 (  4893 PWs)   bands (ev):

   -69.7593 -69.1601 -69.1599 -36.5112 -36.5068 -36.5060 -35.9136 -35.9125
   -35.9121 -35.9095 -35.9078 -35.9074 -14.7312 -14.7275 -14.7262 -14.7229
   -14.7150 -14.7120 -14.6945 -14.6931 -14.6912 -14.6859  -3.1354  -3.0137
     2.8285   3.1790   4.6708   5.3561   5.7903   6.4689   8.3344   8.8127
     9.5934  10.3672  10.4880  12.0710  13.2474  13.4826  13.8376  14.7776

     occupation numbers
     1.0000   1.0000   1.0000   1.0000   1.0000   1.0000   1.0000   1.0000
     1.0000   1.0000   1.0000   1.0000   1.0000   1.0000   1.0000   1.0000
     1.0000   1.0000   1.0000   1.0000   1.0000   1.0000   1.0000   1.0000
     1.0000   1.0000   1.0000   1.0000   1.0000   1.0000   0.0000   0.0000
     0.0000   0.0000   0.0000   0.0000   0.0000   0.0000   0.0000   0.0000

     the Fermi energy is     7.3124 ev

!    total energy              =    -690.56431555 Ry
     estimated scf accuracy    <          1.8E-10 Ry
     smearing contrib. (-TS)   =       0.00065284 Ry
     internal energy E=F+TS    =    -690.56496839 Ry

     The total energy is F=E-TS. E is the sum of the following terms:
     one-electron contribution =    -449.17339901 Ry
     hartree contribution      =     234.18364733 Ry
     xc contribution           =    -117.73406745 Ry
     ewald contribution        =    -357.84114925 Ry

     convergence has been achieved in  10 iterations

     Forces acting on atoms (cartesian axes, Ry/au):

     atom    1 type  1   force =    -0.00000000    0.00000000    0.00000000
     atom    2 type  1   force =    -0.00000000    0.00000000   -0.00042213
     atom    3 type  1   force =    -0.00000000   -0.00000000    0.00042213
     atom    4 type  2   force =     0.00000000    0.00000000   -0.00131611
     atom    5 type  2   force =    -0.00000000    0.00000000    0.00131611
     The non-local contrib.  to forces
     atom    1 type  1   force =    -0.00000000   -0.00000000   -0.00000000
     atom    2 type  1   force =     0.00000000    0.00000000    0.04552631
     atom    3 type  1   force =     0.00000000   -0.00000000   -0.04552631
     atom    4 type  2   force =     0.00000000    0.00000000    0.11161330
     atom    5 type  2   force =    -0.00000000   -0.00000000   -0.11161330
     The ionic contribution  to forces
     atom    1 type  1   force =     0.00000000    0.00000000    0.00000000
     atom    2 type  1   force =     0.00000000    0.00000000   -0.46752288
     atom    3 type  1   force =     0.00000000   -0.00000000    0.46752288
     atom    4 type  2   force =    -0.00000000    0.00000000   -1.52277249
     atom    5 type  2   force =    -0.00000000   -0.00000000    1.52277249
     The local contribution  to forces
     atom    1 type  1   force =    -0.00000000    0.00000000   -0.00000000
     atom    2 type  1   force =    -0.00000000    0.00000017    0.42172703
     atom    3 type  1   force =    -0.00000000   -0.00000017   -0.42172703
     atom    4 type  2   force =    -0.00000000    0.00000003    1.40963588
     atom    5 type  2   force =    -0.00000000   -0.00000003   -1.40963588
     The core correction contribution to forces
     atom    1 type  1   force =    -0.00000000    0.00000000   -0.00000000
     atom    2 type  1   force =    -0.00000000    0.00000000   -0.00017164
     atom    3 type  1   force =    -0.00000000   -0.00000000    0.00017164
     atom    4 type  2   force =     0.00000000    0.00000000    0.00018653
     atom    5 type  2   force =     0.00000000   -0.00000000   -0.00018653
     The Hubbard contrib.    to forces
     atom    1 type  1   force =     0.00000000    0.00000000    0.00000000
     atom    2 type  1   force =     0.00000000    0.00000000    0.00000000
     atom    3 type  1   force =     0.00000000    0.00000000    0.00000000
     atom    4 type  2   force =     0.00000000    0.00000000    0.00000000
     atom    5 type  2   force =     0.00000000    0.00000000    0.00000000
     The SCF correction term to forces
     atom    1 type  1   force =     0.00000000    0.00000000   -0.00000000
     atom    2 type  1   force =    -0.00000000    0.00000000    0.00001904
     atom    3 type  1   force =     0.00000000   -0.00000000   -0.00001904
     atom    4 type  2   force =     0.00000000    0.00000000    0.00002066
     atom    5 type  2   force =    -0.00000000   -0.00000000   -0.00002066

     Total force =     0.001955     Total SCF correction =     0.000040

     Computing stress (Cartesian axis) and pressure

          total   stress  (Ry/bohr**3)                   (kbar)     P=      -38.11
  -0.00025625  -0.00000000   0.00000000          -37.70       -0.00        0.00
  -0.00000000  -0.00025625   0.00000000           -0.00      -37.70        0.00
  -0.00000000   0.00000000  -0.00026471           -0.00        0.00      -38.94

     kinetic stress (kbar)  21757.11     -0.00     -0.00
                                0.00  21757.11      0.00
                                0.00     -0.00  21763.32

     local   stress (kbar) -11796.23      0.00     -0.00
                                0.00 -11796.23      0.00
                               -0.00      0.00 -12709.92

     nonloc. stress (kbar)   1470.34     -0.00     -0.00
                                0.00   1470.34      0.00
                               -0.00      0.00   1459.90

     hartree stress (kbar)  11805.05     -0.00      0.00
                               -0.00  11805.05     -0.00
                                0.00     -0.00  12267.12

     exc-cor stress (kbar)     37.73      0.00     -0.00
                                0.00     37.73     -0.00
                               -0.00     -0.00     36.90

     corecor stress (kbar)  -4886.03      0.00     -0.00
                                0.00  -4886.03     -0.00
                               -0.00     -0.00  -4885.89

     ewald   stress (kbar) -18425.67      0.00      0.00
                                0.00 -18425.67     -0.00
                                0.00     -0.00 -17970.36

     hubbard stress (kbar)      0.00      0.00      0.00
                                0.00      0.00      0.00
                                0.00      0.00      0.00

     DFT-D   stress (kbar)      0.00      0.00      0.00
                                0.00      0.00      0.00
                                0.00      0.00      0.00

     XDM     stress (kbar)      0.00      0.00      0.00
                                0.00      0.00      0.00
                                0.00      0.00      0.00

     dft-nl  stress (kbar)      0.00      0.00      0.00
                                0.00      0.00      0.00
                                0.00      0.00      0.00

     TS-vdW  stress (kbar)      0.00      0.00      0.00
                                0.00      0.00      0.00
                                0.00      0.00      0.00

     MDB     stress (kbar)      0.00      0.00      0.00
                                0.00      0.00      0.00
                                0.00      0.00      0.00

     3D-RISM stress (kbar)      0.00      0.00      0.00
                                0.00      0.00      0.00
                                0.00      0.00      0.00

     Writing all to output data dir ../out/m2.save/

     General routines

     Parallel routines

   This run was terminated on:  16:36:19  27May2023

   JOB DONE.