     Program PWSCF v.6.7MaX starts on  8Oct2023 at 20:12:45

     R & G space division:  proc/nbgrp/npool/nimage =       4
     Waiting for input...
     Reading input from standard input

     Current dimensions of program PWSCF are:
     Max number of different atomic species (ntypx) = 10
     Max number of k-points (npk) =  40000
     Max angular momentum in pseudopotentials (lmaxx) =  3

     Message from routine setup:
     using ibrav=0 with symmetry is DISCOURAGED, use correct ibrav instead

     bravais-lattice index     =            0
     lattice parameter (alat)  =       6.2293  a.u.
     unit-cell volume          =     417.9542 (a.u.)^3
     number of atoms/cell      =            4
     number of atomic types    =            2
     number of electrons       =        36.00
     number of Kohn-Sham states=           40
     kinetic-energy cutoff     =      35.0000  Ry
     charge density cutoff     =     280.0000  Ry
     scf convergence threshold =      8.0E-10
     mixing beta               =       0.4000
     number of iterations used =            8  plain     mixing
     Exchange-correlation=  SLA  PW   PBX  PBC
                           (   1   4   3   4   0   0   0)

     celldm(1)=   6.229263  celldm(2)=   0.000000  celldm(3)=   0.000000
     celldm(4)=   0.000000  celldm(5)=   0.000000  celldm(6)=   0.000000

     crystal axes: (cart. coord. in units of alat)
               a(1) = (   1.000000   0.000000   0.000000 )
               a(2) = (  -0.500000   0.866025   0.000000 )
               a(3) = (   0.000000   0.000000   1.996586 )

     reciprocal axes: (cart. coord. in units 2 pi/alat)
               b(1) = (  1.000000  0.577350 -0.000000 )
               b(2) = (  0.000000  1.154701  0.000000 )
               b(3) = (  0.000000 -0.000000  0.500855 )

     PseudoPot. # 1 for S  read from file:
     ../pseudo/s_pbe_v1.4.uspp.F.UPF
     MD5 check sum: 88d86576ff6df21479756cfb9bdac1df
     Pseudo is Ultrasoft + core correction, Zval =  6.0
     Generated by new atomic code, or converted to UPF format
     Using radial grid of  907 points,  6 beta functions with:
                l(1) =   0
                l(2) =   0
                l(3) =   1
                l(4) =   1
                l(5) =   2
                l(6) =   2
     Q(r) pseudized with  8 coefficients,  rinner =    1.300   1.300   1.300
                                                       1.300   1.300

     PseudoPot. # 2 for Ti read from file:
     ../pseudo/ti_pbe_v1.4.uspp.F.UPF
     MD5 check sum: 88a00a6731bd790ddea75d31a80cb452
     Pseudo is Ultrasoft + core correction, Zval = 12.0
     Generated by new atomic code, or converted to UPF format
     Using radial grid of  851 points,  6 beta functions with:
                l(1) =   0
                l(2) =   0
                l(3) =   1
                l(4) =   1
                l(5) =   2
                l(6) =   2
     Q(r) pseudized with  6 coefficients,  rinner =    1.000   1.000   1.000
                                                       1.000   1.000

     atomic species   valence    mass     pseudopotential
        S              6.00    32.06500     S ( 1.00)
        Ti            12.00    47.86700     Ti( 1.00)

      8 Sym. Ops., with inversion, found ( 4 have fractional translation)

                                    s                        frac. trans.

      isym =  1     identity

 cryst.   s( 1) = (     1          0          0      )
                  (     0          1          0      )
                  (     0          0          1      )

 cart.    s( 1) = (  1.0000000  0.0000000  0.0000000 )
                  (  0.0000000  1.0000000  0.0000000 )
                  (  0.0000000  0.0000000  1.0000000 )

      isym =  2     180 deg rotation - cart. axis [0,0,1]

 cryst.   s( 2) = (    -1          0          0      )    f =(  0.0000000 )
                  (     0         -1          0      )       (  0.0000000 )
                  (     0          0          1      )       ( -0.5000000 )

 cart.    s( 2) = ( -1.0000000  0.0000000  0.0000000 )    f =(  0.0000000 )
                  (  0.0000000 -1.0000000  0.0000000 )       (  0.0000000 )
                  (  0.0000000  0.0000000  1.0000000 )       ( -0.9982930 )

[...]

      isym =  4     180 deg rotation - cart. axis [1,0,0]

[...]

      isym =  5     inversion

[...]

      isym =  6     inv. 180 deg rotation - cart. axis [0,0,1]

[...]

 cryst.   s( 7) = (     1          0          0      )    f =( -0.0000000 )
                  (    -1         -1          0      )       (  0.0000000 )
                  (     0          0          1      )       ( -0.5000000 )

 cart.    s( 7) = (  1.0000000 -0.0000000  0.0000000 )    f =( -0.0000000 )
                  (  0.0000000 -1.0000000  0.0000000 )       (  0.0000000 )
                  (  0.0000000  0.0000000  1.0000000 )       ( -0.9982930 )

      isym =  8     inv. 180 deg rotation - cart. axis [1,0,0]

 cryst.   s( 8) = (    -1          0          0      )
                  (     1          1          0      )
                  (     0          0          1      )

 cart.    s( 8) = ( -1.0000000  0.0000000  0.0000000 )
                  (  0.0000000  1.0000000  0.0000000 )
                  (  0.0000000  0.0000000  1.0000000 )

   Cartesian axes

     site n.     atom                  positions (alat units)
         1           S   tau(   1) = (   0.5000000   0.2887168   0.4991465  )
         2           S   tau(   2) = (  -0.0000000   0.5773086   1.4974395  )
         3           Ti  tau(   3) = (   0.0000000   0.0000000   0.0000000  )
         4           Ti  tau(   4) = (   0.0000000   0.0000000   0.9982930  )

   Crystallographic axes

     site n.     atom                  positions (cryst. coord.)
         1           S   tau(   1) = (  0.6666907  0.3333814  0.2500000  )
         2           S   tau(   2) = (  0.3333093  0.6666186  0.7500000  )
         3           Ti  tau(   3) = (  0.0000000  0.0000000  0.0000000  )
         4           Ti  tau(   4) = (  0.0000000  0.0000000  0.5000000  )

     number of k points=   129  Marzari-Vanderbilt smearing, width (Ry)=  0.0147
                       cart. coord. in units 2pi/alat
        k(    1) = (   0.0000000   0.0000000   0.0000000), wk =   0.0027778
        k(    2) = (   0.0000000   0.0000000   0.1001710), wk =   0.0055556
        k(    3) = (   0.0000000   0.0000000   0.2003420), wk =   0.0055556
        k(    4) = (   0.0000000   0.0962250   0.0000000), wk =   0.0055556
        k(    5) = (   0.0000000   0.0962250   0.1001710), wk =   0.0111111
        k(    6) = (   0.0000000   0.0962250   0.2003420), wk =   0.0111111
        k(    7) = (   0.0000000   0.1924501   0.0000000), wk =   0.0055556
        k(    8) = (   0.0000000   0.1924501   0.1001710), wk =   0.0111111
        k(    9) = (   0.0000000   0.1924501   0.2003420), wk =   0.0111111
        k(   10) = (   0.0000000   0.2886751   0.0000000), wk =   0.0055556
        k(   11) = (   0.0000000   0.2886751   0.1001710), wk =   0.0111111
        k(   12) = (   0.0000000   0.2886751   0.2003420), wk =   0.0111111
        k(   13) = (   0.0000000   0.3849002   0.0000000), wk =   0.0055556
        k(   14) = (   0.0000000   0.3849002   0.1001710), wk =   0.0111111
        k(   15) = (   0.0000000   0.3849002   0.2003420), wk =   0.0111111
        k(   16) = (   0.0000000   0.4811252   0.0000000), wk =   0.0055556
        k(   17) = (   0.0000000   0.4811252   0.1001710), wk =   0.0111111
        k(   18) = (   0.0000000   0.4811252   0.2003420), wk =   0.0111111
        k(   19) = (   0.0000000  -0.5773503   0.0000000), wk =   0.0027778
        k(   20) = (   0.0000000  -0.5773503   0.1001710), wk =   0.0055556
        k(   21) = (   0.0000000  -0.5773503   0.2003420), wk =   0.0055556
        k(   22) = (   0.0833333   0.1443376   0.0000000), wk =   0.0111111
        k(   23) = (   0.0833333   0.1443376   0.1001710), wk =   0.0222222
        k(   24) = (   0.0833333   0.1443376   0.2003420), wk =   0.0222222
        k(   25) = (   0.0833333   0.2405626   0.0000000), wk =   0.0111111
        k(   26) = (   0.0833333   0.2405626   0.1001710), wk =   0.0222222
        k(   27) = (   0.0833333   0.2405626   0.2003420), wk =   0.0222222
        k(   28) = (   0.0833333   0.3367877   0.0000000), wk =   0.0111111
        k(   29) = (   0.0833333   0.3367877   0.1001710), wk =   0.0222222
        k(   30) = (   0.0833333   0.3367877   0.2003420), wk =   0.0222222
        k(   31) = (   0.0833333   0.4330127   0.0000000), wk =   0.0111111
        k(   32) = (   0.0833333   0.4330127   0.1001710), wk =   0.0222222
        k(   33) = (   0.0833333   0.4330127   0.2003420), wk =   0.0222222
        k(   34) = (   0.0833333   0.5292377   0.0000000), wk =   0.0111111
        k(   35) = (   0.0833333   0.5292377   0.1001710), wk =   0.0222222
        k(   36) = (   0.0833333   0.5292377   0.2003420), wk =   0.0222222
        k(   37) = (   0.1666667   0.2886751   0.0000000), wk =   0.0111111
        k(   38) = (   0.1666667   0.2886751   0.1001710), wk =   0.0222222
        k(   39) = (   0.1666667   0.2886751   0.2003420), wk =   0.0222222
        k(   40) = (   0.1666667   0.3849002   0.0000000), wk =   0.0111111
        k(   41) = (   0.1666667   0.3849002   0.1001710), wk =   0.0222222
        k(   42) = (   0.1666667   0.3849002   0.2003420), wk =   0.0222222
        k(   43) = (   0.1666667   0.4811252   0.0000000), wk =   0.0111111
        k(   44) = (   0.1666667   0.4811252   0.1001710), wk =   0.0222222
        k(   45) = (   0.1666667   0.4811252   0.2003420), wk =   0.0222222
        k(   46) = (   0.1666667   0.5773503   0.0000000), wk =   0.0055556
        k(   47) = (   0.1666667   0.5773503   0.1001710), wk =   0.0111111
        k(   48) = (   0.1666667   0.5773503   0.2003420), wk =   0.0111111
        k(   49) = (   0.2500000   0.4330127   0.0000000), wk =   0.0111111
        k(   50) = (   0.2500000   0.4330127   0.1001710), wk =   0.0222222
        k(   51) = (   0.2500000   0.4330127   0.2003420), wk =   0.0222222
        k(   52) = (   0.2500000   0.5292377   0.0000000), wk =   0.0111111
        k(   53) = (   0.2500000   0.5292377   0.1001710), wk =   0.0222222
        k(   54) = (   0.2500000   0.5292377   0.2003420), wk =   0.0222222
        k(   55) = (   0.3333333   0.5773503   0.0000000), wk =   0.0055556
        k(   56) = (   0.3333333   0.5773503   0.1001710), wk =   0.0111111
        k(   57) = (   0.3333333   0.5773503   0.2003420), wk =   0.0111111
        k(   58) = (  -0.0833333  -0.0481125   0.0000000), wk =   0.0111111
        k(   59) = (  -0.0833333  -0.0481125  -0.1001710), wk =   0.0222222
        k(   60) = (  -0.0833333  -0.0481125  -0.2003420), wk =   0.0222222
[...]
        k(  115) = (   0.5000000  -0.0962250  -0.1001710), wk =   0.0222222
        k(  116) = (  -0.3333333  -0.3849002  -0.2003420), wk =   0.0222222
        k(  117) = (   0.5000000  -0.0962250  -0.2003420), wk =   0.0222222
        k(  118) = (  -0.4166667  -0.4330127   0.0000000), wk =   0.0111111
        k(  119) = (  -0.4166667  -0.4330127  -0.1001710), wk =   0.0222222
        k(  120) = (  -0.4166667  -0.4330127  -0.2003420), wk =   0.0222222
        k(  121) = (   0.5000000  -0.0000000   0.0000000), wk =   0.0055556
        k(  122) = (   0.5000000  -0.0000000  -0.1001710), wk =   0.0111111
        k(  123) = (   0.5000000  -0.0000000  -0.2003420), wk =   0.0111111
        k(  124) = (  -0.3333333  -0.4811252   0.0000000), wk =   0.0111111
        k(  125) = (   0.5833333  -0.0481125   0.0000000), wk =   0.0111111
        k(  126) = (  -0.3333333  -0.4811252  -0.1001710), wk =   0.0222222
        k(  127) = (   0.5833333  -0.0481125  -0.1001710), wk =   0.0222222
        k(  128) = (  -0.3333333  -0.4811252  -0.2003420), wk =   0.0222222
        k(  129) = (   0.5833333  -0.0481125  -0.2003420), wk =   0.0222222

                       cryst. coord.
        k(    1) = (   0.0000000   0.0000000   0.0000000), wk =   0.0027778
        k(    2) = (   0.0000000   0.0000000   0.2000000), wk =   0.0055556
        k(    3) = (   0.0000000   0.0000000   0.4000000), wk =   0.0055556
        k(    4) = (   0.0000000   0.0833333   0.0000000), wk =   0.0055556
        k(    5) = (   0.0000000   0.0833333   0.2000000), wk =   0.0111111
        k(    6) = (   0.0000000   0.0833333   0.4000000), wk =   0.0111111
        k(    7) = (   0.0000000   0.1666667   0.0000000), wk =   0.0055556
        k(    8) = (   0.0000000   0.1666667   0.2000000), wk =   0.0111111
        k(    9) = (   0.0000000   0.1666667   0.4000000), wk =   0.0111111
        k(   10) = (   0.0000000   0.2500000   0.0000000), wk =   0.0055556
        k(   11) = (   0.0000000   0.2500000   0.2000000), wk =   0.0111111
        k(   12) = (   0.0000000   0.2500000   0.4000000), wk =   0.0111111
        k(   13) = (   0.0000000   0.3333333   0.0000000), wk =   0.0055556
        k(   14) = (   0.0000000   0.3333333   0.2000000), wk =   0.0111111
        k(   15) = (   0.0000000   0.3333333   0.4000000), wk =   0.0111111
        k(   16) = (   0.0000000   0.4166667   0.0000000), wk =   0.0055556
        k(   17) = (   0.0000000   0.4166667   0.2000000), wk =   0.0111111
        k(   18) = (   0.0000000   0.4166667   0.4000000), wk =   0.0111111
        k(   19) = (   0.0000000  -0.5000000   0.0000000), wk =   0.0027778
        k(   20) = (   0.0000000  -0.5000000   0.2000000), wk =   0.0055556
        k(   21) = (   0.0000000  -0.5000000   0.4000000), wk =   0.0055556
        k(   22) = (   0.0833333   0.0833333   0.0000000), wk =   0.0111111
        k(   23) = (   0.0833333   0.0833333   0.2000000), wk =   0.0222222
        k(   24) = (   0.0833333   0.0833333   0.4000000), wk =   0.0222222
        k(   25) = (   0.0833333   0.1666667   0.0000000), wk =   0.0111111
        k(   26) = (   0.0833333   0.1666667   0.2000000), wk =   0.0222222
        k(   27) = (   0.0833333   0.1666667   0.4000000), wk =   0.0222222
        k(   28) = (   0.0833333   0.2500000   0.0000000), wk =   0.0111111
        k(   29) = (   0.0833333   0.2500000   0.2000000), wk =   0.0222222
        k(   30) = (   0.0833333   0.2500000   0.4000000), wk =   0.0222222
        k(   31) = (   0.0833333   0.3333333   0.0000000), wk =   0.0111111
        k(   32) = (   0.0833333   0.3333333   0.2000000), wk =   0.0222222
        k(   33) = (   0.0833333   0.3333333   0.4000000), wk =   0.0222222
        k(   34) = (   0.0833333   0.4166667   0.0000000), wk =   0.0111111
        k(   35) = (   0.0833333   0.4166667   0.2000000), wk =   0.0222222
        k(   36) = (   0.0833333   0.4166667   0.4000000), wk =   0.0222222
        k(   37) = (   0.1666667   0.1666667   0.0000000), wk =   0.0111111
        k(   38) = (   0.1666667   0.1666667   0.2000000), wk =   0.0222222
        k(   39) = (   0.1666667   0.1666667   0.4000000), wk =   0.0222222
        k(   40) = (   0.1666667   0.2500000   0.0000000), wk =   0.0111111
        k(   41) = (   0.1666667   0.2500000   0.2000000), wk =   0.0222222
        k(   42) = (   0.1666667   0.2500000   0.4000000), wk =   0.0222222
        k(   43) = (   0.1666667   0.3333333   0.0000000), wk =   0.0111111
        k(   44) = (   0.1666667   0.3333333   0.2000000), wk =   0.0222222
        k(   45) = (   0.1666667   0.3333333   0.4000000), wk =   0.0222222
        k(   46) = (   0.1666667   0.4166667   0.0000000), wk =   0.0055556
        k(   47) = (   0.1666667   0.4166667   0.2000000), wk =   0.0111111
        k(   48) = (   0.1666667   0.4166667   0.4000000), wk =   0.0111111
        k(   49) = (   0.2500000   0.2500000   0.0000000), wk =   0.0111111
        k(   50) = (   0.2500000   0.2500000   0.2000000), wk =   0.0222222
        k(   51) = (   0.2500000   0.2500000   0.4000000), wk =   0.0222222
        k(   52) = (   0.2500000   0.3333333   0.0000000), wk =   0.0111111
        k(   53) = (   0.2500000   0.3333333   0.2000000), wk =   0.0222222
        k(   54) = (   0.2500000   0.3333333   0.4000000), wk =   0.0222222
        k(   55) = (   0.3333333   0.3333333   0.0000000), wk =   0.0055556
        k(   56) = (   0.3333333   0.3333333   0.2000000), wk =   0.0111111
        k(   57) = (   0.3333333   0.3333333   0.4000000), wk =   0.0111111
        k(   58) = (  -0.0833333   0.0000000   0.0000000), wk =   0.0111111
        k(   59) = (  -0.0833333   0.0000000  -0.2000000), wk =   0.0222222
        k(   60) = (  -0.0833333   0.0000000  -0.4000000), wk =   0.0222222
[...]
        k(  115) = (   0.5000000  -0.3333333  -0.2000000), wk =   0.0222222
        k(  116) = (  -0.3333333  -0.1666667  -0.4000000), wk =   0.0222222
        k(  117) = (   0.5000000  -0.3333333  -0.4000000), wk =   0.0222222
        k(  118) = (  -0.4166667  -0.1666667   0.0000000), wk =   0.0111111
        k(  119) = (  -0.4166667  -0.1666667  -0.2000000), wk =   0.0222222
        k(  120) = (  -0.4166667  -0.1666667  -0.4000000), wk =   0.0222222
        k(  121) = (   0.5000000  -0.2500000   0.0000000), wk =   0.0055556
        k(  122) = (   0.5000000  -0.2500000  -0.2000000), wk =   0.0111111
        k(  123) = (   0.5000000  -0.2500000  -0.4000000), wk =   0.0111111
        k(  124) = (  -0.3333333  -0.2500000   0.0000000), wk =   0.0111111
        k(  125) = (   0.5833333  -0.3333333   0.0000000), wk =   0.0111111
        k(  126) = (  -0.3333333  -0.2500000  -0.2000000), wk =   0.0222222
        k(  127) = (   0.5833333  -0.3333333  -0.2000000), wk =   0.0222222
        k(  128) = (  -0.3333333  -0.2500000  -0.4000000), wk =   0.0222222
        k(  129) = (   0.5833333  -0.3333333  -0.4000000), wk =   0.0222222

     Check: negative core charge=   -0.000005

     Initial potential from superposition of free atoms

     starting charge   33.99984, renormalised to   36.00000

     negative rho (up, down):  2.152E-03 0.000E+00
     Starting wfcs are   28 randomized atomic wfcs +   12 random wfcs

     Self-consistent Calculation

     iteration #  1     ecut=    35.00 Ry     beta= 0.40
     Davidson diagonalization with overlap
     ethr =  1.00E-02,  avg # of iterations =  6.3

     negative rho (up, down):  2.072E-03 0.000E+00

     total energy              =    -287.02863268 Ry
     estimated scf accuracy    <       0.36734459 Ry

[...]

     total energy              =    -287.11763640 Ry
     estimated scf accuracy    <       0.00000002 Ry

     iteration #  9     ecut=    35.00 Ry     beta= 0.40
     Davidson diagonalization with overlap
     ethr =  5.84E-11,  avg # of iterations =  2.3

     negative rho (up, down):  1.564E-03 0.000E+00

     End of self-consistent calculation

          k = 0.0000 0.0000 0.0000 (  1481 PWs)   bands (ev):

   -44.2378 -44.2273 -20.6438 -20.4948 -20.4252 -20.4252 -20.4127 -20.4127
    -2.4571  -1.3073   5.4467   9.5610   9.5613   9.6982  11.0536  11.5974
    11.5977  12.8904  12.8904  13.1835  13.1836  14.4182  14.4184  14.6356
    16.6998  16.7005  17.1103  17.6711  21.0018  21.0021  22.2987  23.2888
    24.1769  24.5061  24.5065  24.9721  24.9727  25.9347  26.7595  26.7602

     occupation numbers
     1.0000   1.0000   1.0000   1.0000   1.0000   1.0000   1.0000   1.0000
     1.0000   1.0000   1.0000   1.0000   1.0000   1.0000   1.0000   1.0000
     1.0000   1.0791   1.0791   0.2885   0.2883   0.0000   0.0000   0.0000
     0.0000   0.0000   0.0000   0.0000   0.0000   0.0000   0.0000   0.0000
     0.0000   0.0000   0.0000   0.0000   0.0000   0.0000   0.0000   0.0000

[...]

          k =-0.0833-0.0481 0.0000 (  1454 PWs)   bands (ev):

[...]

          k =-0.3333-0.4811-0.2003 (  1464 PWs)   bands (ev):

[...]

          k = 0.5833-0.0481-0.2003 (  1464 PWs)   bands (ev):

   -44.2138 -44.2108 -20.5661 -20.5588 -20.5492 -20.5146 -20.5106 -20.5082
    -0.5449  -0.5201   6.6239   6.8324   7.7810   7.9372   8.0589   8.1255
    12.6326  12.6653  14.1565  14.5627  14.6421  14.8236  15.0408  15.2570
    16.7473  16.9550  18.4670  18.7817  19.3944  20.6435  21.8168  22.0461
    23.3171  23.5808  24.5137  25.8260  26.5662  27.9243  30.6508  30.8894

     occupation numbers
     1.0000   1.0000   1.0000   1.0000   1.0000   1.0000   1.0000   1.0000
     1.0000   1.0000   1.0000   1.0000   1.0000   1.0000   1.0000   1.0000
     1.0080   1.0137   0.0000   0.0000   0.0000   0.0000   0.0000   0.0000
     0.0000   0.0000   0.0000   0.0000   0.0000   0.0000   0.0000   0.0000
     0.0000   0.0000   0.0000   0.0000   0.0000   0.0000   0.0000   0.0000

     the Fermi energy is    13.1483 ev

!    total energy              =    -287.11763643 Ry
     estimated scf accuracy    <          5.4E-10 Ry
     smearing contrib. (-TS)   =      -0.00010622 Ry
     internal energy E=F+TS    =    -287.11753021 Ry

     The total energy is F=E-TS. E is the sum of the following terms:
     one-electron contribution =     -82.53049009 Ry
     hartree contribution      =      56.92729479 Ry
     xc contribution           =     -53.29019448 Ry
     ewald contribution        =    -208.22414043 Ry

     convergence has been achieved in   9 iterations

     Writing output data file ../out/TiS.save/

     General routines

     Parallel routines

   This run was terminated on:  20:13:30   8Oct2023

   JOB DONE.